3 3 2
30 0 17 1 31 0 23 1 41 0 35 1 30 2 16 0 5 2 15 0 43 1 31 2 38 1 42 0 24 1 7 0 29 1 37 0 5 2 39 1 43 2 15 0 30 2 10 0 14 1 33 0 9 1 42 0 41 2 31 1 27 
30 0 1 2 49 0 49 1 31 0 21 2 47 0 14 2 8 0 30 2 29 0 13 1 4 0 21 2 43 1 24 0 13 2 1 1 11 0 39 1 34 2 40 1 30 2 37 1 5 0 9 2 20 1 34 2 16 0 38 2 16 
30 0 35 1 41 2 8 0 27 1 3 0 41 1 32 2 23 1 48 2 16 1 40 2 33 0 20 1 13 0 17 1 13 2 48 0 35 1 8 2 39 0 24 1 5 2 42 0 19 1 41 2 25 0 3 1 26 2 26 1 34 

-------------
